g3 1 1 0	# problem ethanol
 2 0 14 0 0 	# vars, constraints, objectives, ranges, eqns
 0 13 0 0 0 0	# nonlinear constrs, objs; ccons: lin, nonlin, nd, nzlb
 0 0	# network constraints: nonlinear, linear
 0 2 0 	# nonlinear vars in constraints, objectives, both
 0 0 0 1	# linear network variables; functions; arith, flags
 0 0 0 0 0 	# discrete variables: binary, integer, nonlinear (b,c,o)
 0 20 	# nonzeros in Jacobian, obj. gradient
 0 0	# max name lengths: constraints, variables
 0 0 0 0 0	# common exprs: b,c,o,c1,o1
O0 0
o0
o54
6
o43
v0
o2
n3.43069
o43
v1
o2
n2.14326
o43
o0
o16
o44
o2
n-0.816771
v1
n1
o2
n5.09206
o43
o0
o16
o44
o2
n-2.59175
v1
n1
o2
n6.60138
o43
o0
o16
o44
o2
n-3.80408
v1
n1
o2
n5.70777
o43
o0
o16
o44
o2
n-8.58736
v1
n1
n-3.64440040423637
O1 0
o5
v0
n-1.0
O2 0
o16
o5
v0
n-2.0
O3 0
o0
o54
5
o2
n3.43069
o5
v1
n-1.0
o2
o2
n25.112177630399998
o5
o0
o16
o44
o2
n-3.80408
v1
n1.0
n-1.0
o44
o2
n-3.80408
v1
o2
o2
n49.014675787200005
o5
o0
o16
o44
o2
n-8.58736
v1
n1.0
n-1.0
o44
o2
n-8.58736
v1
o2
o2
n13.197346505
o5
o0
o16
o44
o2
n-2.59175
v1
n1.0
n-1.0
o44
o2
n-2.59175
v1
o2
o2
n1.7505526134600002
o5
o0
o16
o44
o2
n-0.816771
v1
n1.0
n-1.0
o44
o2
n-0.816771
v1
n5.070807811278541
O4 0
o54
9
o2
n-3.43069
o5
v1
n-2.0
o2
o2
n-34.20422280433375
o5
o0
o16
o44
o2
n-2.59175
v1
n1.0
n-1.0
o44
o2
n-2.59175
v1
o2
o2
n-34.20422280433375
o5
o0
o16
o44
o2
n-2.59175
v1
n1.0
n-2.0
o44
o2
n-5.1835
v1
o2
o2
n-420.90666626796985
o5
o0
o16
o44
o2
n-8.58736
v1
n1.0
n-1.0
o44
o2
n-8.58736
v1
o2
o2
n-420.90666626796985
o5
o0
o16
o44
o2
n-8.58736
v1
n1.0
n-2.0
o44
o2
n-17.17472
v1
o2
o2
n-1.429800608648338
o5
o0
o16
o44
o2
n-0.816771
v1
n1.0
n-1.0
o44
o2
n-0.816771
v1
o2
o2
n-1.429800608648338
o5
o0
o16
o44
o2
n-0.816771
v1
n1.0
n-2.0
o44
o2
n-1.633542
v1
o2
o2
n-95.52873268025202
o5
o0
o16
o44
o2
n-3.80408
v1
n1.0
n-1.0
o44
o2
n-3.80408
v1
o2
o2
n-95.52873268025202
o5
o0
o16
o44
o2
n-3.80408
v1
n1.0
n-2.0
o44
o2
n-7.60816
v1
O5 0
o54
25
o2
o2
n0.058200796
o5
v0
n4
v1
o2
o2
n0.94391227
v0
o5
v1
n1.04
o2
o2
n-0.80941908
v0
o5
v1
n2.72
o2
o2
n0.55359038
o5
v0
n2
o5
v1
n1.174
o2
o2
n-1.4269032
o5
v0
n2
o5
v1
n1.329
o2
o2
n0.13448717
o5
v0
n3
o5
v1
n0.195
o2
o2
o2
n0.42671978
v0
o5
v1
n2.43
o44
o2
n-1.0
v0
o2
o2
o2
n-1.1700261
v0
o5
v1
n1.274
o44
o2
n-1.0
v0
o2
o2
o2
n-0.92405872
v0
o5
v1
n4.16
o44
o16
o5
v0
n2
o2
o2
o2
n0.34891808
o5
v0
n3
o5
v1
n3.3
o44
o2
n-1.0
v0
o2
o2
o2
n-0.9132772
o5
v0
n3
o5
v1
n4.177
o44
o16
o5
v0
n2
o2
o2
o2
n0.022629481
o5
v0
n2
o5
v1
n2.5
o44
o2
n-1.0
v0
o2
o2
o2
n-0.15513423
o5
v0
n2
o5
v1
n0.81
o44
o16
o5
v0
n2
o2
o2
o2
n0.21055146
o5
v0
n6
o5
v1
n2.02
o44
o2
n-1.0
v0
o2
o2
o2
n-0.2199769
o5
v0
n6
o5
v1
n1.606
o44
o2
n-1.0
v0
o2
o2
o2
n-0.0065857238
o5
v0
n8
o5
v1
n0.86
o44
o2
n-1.0
v0
o2
o2
o2
n0.75564749
v0
o5
v1
n2.5
o44
o0
o2
n-1.075
o5
o0
v0
n-0.779
n2
o2
n-1.207
o5
o0
v1
n-1.194
n2
o2
o2
o2
n0.1069411
v0
o5
v1
n3.72
o44
o0
o2
n-0.463
o5
o0
v0
n-0.805
n2
o2
n-0.0895
o5
o0
v1
n-1.986
n2
o2
o2
o2
n-0.069533844
o5
v0
n2
o5
v1
n1.19
o44
o0
o2
n-0.876
o5
o0
v0
n-1.869
n2
o2
n-0.581
o5
o0
v1
n-1.583
n2
o2
o2
o2
n-0.24947395
o5
v0
n3
o5
v1
n3.25
o44
o0
o2
n-1.108
o5
o0
v0
n-0.694
n2
o2
n-0.947
o5
o0
v1
n-0.756
n2
o2
o2
o2
n0.027177891
o5
v0
n3
o5
v1
n3
o44
o0
o2
n-0.741
o5
o0
v0
n-1.312
n2
o2
n-2.356
o5
o0
v1
n-0.495
n2
o2
o2
o2
n-0.0009053953
o5
v0
n2
o5
v1
n2
o44
o0
o2
n-4.032
o5
o0
v0
n-2.054
n2
o2
n-27.01
o5
o0
v1
n-1.002
n2
o2
o2
o2
n-0.12310953
o5
v0
n2
o5
v1
n2
o44
o0
o2
n-2.453
o5
o0
v0
n-0.441
n2
o2
n-4.542
o5
o0
v1
n-1.077
n2
o2
o2
o2
n-0.08977971
o5
v0
n2
v1
o44
o0
o2
n-2.3
o5
o0
v0
n-0.793
n2
o2
n-1.287
o5
o0
v1
n-1.493
n2
o2
o2
o2
n-0.39512601
v0
v1
o44
o0
o2
n-3.143
o5
o0
v0
n-0.313
n2
o2
n-3.09
o5
o0
v1
n-1.542
n2
O6 0
o54
44
o2
n0.94391227
o5
v1
n1.04
o2
n-0.80941908
o5
v1
n2.72
o2
o2
n0.42671978
o5
v1
n2.43
o44
o2
n-1.0
v0
o2
o2
n0.232803184
v1
o5
v0
n3.0
o2
o2
n0.40346150999999997
o5
v0
n2.0
o5
v1
n0.195
o2
o2
n1.10718076
v0
o5
v1
n1.174
o2
o2
n0.75564749
o5
v1
n2.5
o44
o0
o2
n-1.075
o5
o0
v0
n-0.779
n2.0
o2
n-1.207
o5
o0
v1
n-1.194
n2.0
o2
o2
n0.1069411
o5
v1
n3.72
o44
o0
o2
n-0.0895
o5
o0
v1
n-1.986
n2.0
o2
n-0.463
o5
o0
v0
n-0.805
n2.0
o2
o2
n-2.8538064
v0
o5
v1
n1.329
o2
o2
n-0.39512601
v1
o44
o0
o2
n-3.09
o5
o0
v1
n-1.542
n2.0
o2
n-3.143
o5
o0
v0
n-0.313
n2.0
o2
o2
n-1.1700261
o5
v1
n1.274
o44
o2
n-1.0
v0
o2
o2
n-0.92405872
o5
v1
n4.16
o44
o16
o5
v0
n2.0
o2
o2
o2
n1.8265544
o5
v0
n4.0
o5
v1
n4.177
o44
o16
o5
v0
n2.0
o2
o2
o2
n0.081533673
o5
v0
n2.0
o5
v1
n3.0
o44
o0
o2
n-2.356
o5
o0
v1
n-0.495
n2.0
o2
n-0.741
o5
o0
v0
n-1.312
n2.0
o2
o2
o2
n0.045258962
v0
o5
v1
n2.5
o44
o2
n-1.0
v0
o2
o2
o2
n0.0065857238
o5
v0
n8.0
o5
v1
n0.86
o44
o2
n-1.0
v0
o2
o2
o2
n1.04675424
o5
v0
n2.0
o5
v1
n3.3
o44
o2
n-1.0
v0
o2
o2
o2
n1.1700261
v0
o5
v1
n1.274
o44
o2
n-1.0
v0
o2
o2
o2
n0.31026846
o5
v0
n3.0
o5
v1
n0.81
o44
o16
o5
v0
n2.0
o2
o2
o2
n1.26330876
o5
v0
n5.0
o5
v1
n2.02
o44
o2
n-1.0
v0
o2
o2
o2
n0.2199769
o5
v0
n6.0
o5
v1
n1.606
o44
o2
n-1.0
v0
o2
o2
o2
n1.84811744
o5
v0
n2.0
o5
v1
n4.16
o44
o16
o5
v0
n2.0
o2
o2
o2
n-0.42671978
v0
o5
v1
n2.43
o44
o2
n-1.0
v0
o2
o2
o2
n-0.34891808
o5
v0
n3.0
o5
v1
n3.3
o44
o2
n-1.0
v0
o2
o2
o2
n-0.022629481
o5
v0
n2.0
o5
v1
n2.5
o44
o2
n-1.0
v0
o2
o2
o2
n-0.7484218499999999
o5
v0
n2.0
o5
v1
n3.25
o44
o0
o2
n-1.108
o5
o0
v0
n-0.694
n2.0
o2
n-0.947
o5
o0
v1
n-0.756
n2.0
o2
o2
o2
n-0.0526857904
o5
v0
n7.0
o5
v1
n0.86
o44
o2
n-1.0
v0
o2
o2
o2
n-0.24621906
v0
o5
v1
n2.0
o44
o0
o2
n-4.542
o5
o0
v1
n-1.077
n2.0
o2
n-2.453
o5
o0
v0
n-0.441
n2.0
o2
o2
o2
n-0.139067688
v0
o5
v1
n1.19
o44
o0
o2
n-0.581
o5
o0
v1
n-1.583
n2.0
o2
n-0.876
o5
o0
v0
n-1.869
n2.0
o2
o2
o2
n-0.31026846
v0
o5
v1
n0.81
o44
o16
o5
v0
n2.0
o2
o2
o2
n-1.3198614
o5
v0
n5.0
o5
v1
n1.606
o44
o2
n-1.0
v0
o2
o2
o2
n-2.7398316
o5
v0
n2.0
o5
v1
n4.177
o44
o16
o5
v0
n2.0
o2
o2
o2
n-0.17955942
v0
v1
o44
o0
o2
n-1.287
o5
o0
v1
n-1.493
n2.0
o2
n-2.3
o5
o0
v0
n-0.793
n2.0
o2
o2
o2
n-0.21055146
o5
v0
n6.0
o5
v1
n2.02
o44
o2
n-1.0
v0
o2
o2
o2
n-0.0018107906
v0
o5
v1
n2.0
o44
o0
o2
n-4.032
o5
o0
v0
n-2.054
n2.0
o2
n-27.01
o5
o0
v1
n-1.002
n2.0
o2
o2
o2
o2
n0.75564749
v0
o5
v1
n2.5
o0
o2
n-2.15
v0
n1.67485
o44
o0
o2
n-1.075
o5
o0
v0
n-0.779
n2.0
o2
n-1.207
o5
o0
v1
n-1.194
n2.0
o2
o2
o2
o2
n0.1069411
v0
o5
v1
n3.72
o0
o2
n-0.926
v0
n0.74543
o44
o0
o2
n-0.0895
o5
o0
v1
n-1.986
n2.0
o2
n-0.463
o5
o0
v0
n-0.805
n2.0
o2
o2
o2
o2
n0.027177891
o5
v0
n3.0
o5
v1
n3.0
o0
o2
n-1.482
v0
n1.9443840000000001
o44
o0
o2
n-2.356
o5
o0
v1
n-0.495
n2.0
o2
n-0.741
o5
o0
v0
n-1.312
n2.0
o2
o2
o2
o2
n-0.39512601
v0
v1
o0
o2
n-6.286
v0
n1.9675179999999999
o44
o0
o2
n-3.09
o5
o0
v1
n-1.542
n2.0
o2
n-3.143
o5
o0
v0
n-0.313
n2.0
o2
o2
o2
o2
n-0.12310953
o5
v0
n2.0
o5
v1
n2.0
o0
o2
n-4.906
v0
n2.1635459999999997
o44
o0
o2
n-4.542
o5
o0
v1
n-1.077
n2.0
o2
n-2.453
o5
o0
v0
n-0.441
n2.0
o2
o2
o2
o2
n-0.24947395
o5
v0
n3.0
o5
v1
n3.25
o0
o2
n-2.216
v0
n1.537904
o44
o0
o2
n-1.108
o5
o0
v0
n-0.694
n2.0
o2
n-0.947
o5
o0
v1
n-0.756
n2.0
o2
o2
o2
o2
n-0.069533844
o5
v0
n2.0
o5
v1
n1.19
o0
o2
n-1.752
v0
n3.274488
o44
o0
o2
n-0.581
o5
o0
v1
n-1.583
n2.0
o2
n-0.876
o5
o0
v0
n-1.869
n2.0
o2
o2
o2
o2
n-0.08977971
v1
o5
v0
n2.0
o0
o2
n-4.6
v0
n3.6477999999999997
o44
o0
o2
n-1.287
o5
o0
v1
n-1.493
n2.0
o2
n-2.3
o5
o0
v0
n-0.793
n2.0
o2
o2
o2
o2
n-0.0009053953
o5
v0
n2.0
o5
v1
n2.0
o0
o2
n-8.064
v0
n16.563456
o44
o0
o2
n-4.032
o5
o0
v0
n-2.054
n2.0
o2
n-27.01
o5
o0
v1
n-1.002
n2.0
O7 0
o54
74
o2
n1.10718076
o5
v1
n1.174
o2
n-2.8538064
o5
v1
n1.329
o2
o2
n0.698409552
v1
o5
v0
n2.0
o2
o2
n0.045258962
o5
v1
n2.5
o44
o2
n-1.0
v0
o2
o2
n0.8069230199999999
o5
v1
n0.195
v0
o2
o2
n2.3400522
o5
v1
n1.274
o44
o2
n-1.0
v0
o2
o2
n-0.85343956
o5
v1
n2.43
o44
o2
n-1.0
v0
o2
o2
n-0.24621906
o5
v1
n2.0
o44
o0
o2
n-4.542
o5
o0
v1
n-1.077
n2.0
o2
n-2.453
o5
o0
v0
n-0.441
n2.0
o2
o2
n-0.139067688
o5
v1
n1.19
o44
o0
o2
n-0.581
o5
o0
v1
n-1.583
n2.0
o2
n-0.876
o5
o0
v0
n-1.869
n2.0
o2
o2
n-0.31026846
o5
v1
n0.81
o44
o16
o5
v0
n2.0
o2
o2
n-0.17955942
v1
o44
o0
o2
n-1.287
o5
o0
v1
n-1.493
n2.0
o2
n-2.3
o5
o0
v0
n-0.793
n2.0
o2
o2
n-0.0018107906
o5
v1
n2.0
o44
o0
o2
n-4.032
o5
o0
v0
n-2.054
n2.0
o2
n-27.01
o5
o0
v1
n-1.002
n2.0
o2
o2
o2
n12.785880800000001
o5
v1
n4.177
o5
v0
n3.0
o44
o16
o5
v0
n2.0
o2
o2
o2
n0.42671978
v0
o5
v1
n2.43
o44
o2
n-1.0
v0
o2
o2
o2
n1.5513423
o5
v1
n0.81
o5
v0
n2.0
o44
o16
o5
v0
n2.0
o2
o2
o2
n0.34891808
o5
v1
n3.3
o5
v0
n3.0
o44
o2
n-1.0
v0
o2
o2
o2
n0.5528342732
o5
v1
n3.25
o5
v0
n3.0
o44
o0
o2
n-1.108
o5
o0
v0
n-0.694
n2.0
o2
n-0.947
o5
o0
v1
n-0.756
n2.0
o2
o2
o2
n0.6039753541799999
o5
v1
n2.0
o5
v0
n2.0
o44
o0
o2
n-4.542
o5
o0
v1
n-1.077
n2.0
o2
n-2.453
o5
o0
v0
n-0.441
n2.0
o2
o2
o2
n0.163067346
o5
v1
n3.0
v0
o44
o0
o2
n-2.356
o5
o0
v1
n-0.495
n2.0
o2
n-0.741
o5
o0
v0
n-1.312
n2.0
o2
o2
o2
n5.54435232
o5
v1
n4.16
v0
o44
o16
o5
v0
n2.0
o2
o2
o2
n0.022629481
o5
v1
n2.5
o5
v0
n2.0
o44
o2
n-1.0
v0
o2
o2
o2
n6.3165438
o5
v1
n2.02
o5
v0
n4.0
o44
o2
n-1.0
v0
o2
o2
o2
n0.1053715808
o5
v1
n0.86
o5
v0
n7.0
o44
o2
n-1.0
v0
o2
o2
o2
n0.12182329468799999
o5
v1
n1.19
o5
v0
n2.0
o44
o0
o2
n-0.581
o5
o0
v1
n-1.583
n2.0
o2
n-0.876
o5
o0
v0
n-1.869
n2.0
o2
o2
o2
n2.09350848
o5
v1
n3.3
v0
o44
o2
n-1.0
v0
o2
o2
o2
n2.48376209886
v1
v0
o44
o0
o2
n-3.09
o5
o0
v1
n-1.542
n2.0
o2
n-3.143
o5
o0
v0
n-0.313
n2.0
o2
o2
o2
n2.48376209886
v1
o0
v0
n-0.313
o44
o0
o2
n-3.09
o5
o0
v1
n-1.542
n2.0
o2
n-3.143
o5
o0
v0
n-0.313
n2.0
o2
o2
o2
n2.6397228
o5
v1
n1.606
o5
v0
n5.0
o44
o2
n-1.0
v0
o2
o2
o2
n0.75564749
o5
v1
n2.5
o0
o2
n-2.15
v0
n1.67485
o44
o0
o2
n-1.075
o5
o0
v0
n-0.779
n2.0
o2
n-1.207
o5
o0
v1
n-1.194
n2.0
o2
o2
o2
n0.41298666599999995
v1
o5
v0
n2.0
o44
o0
o2
n-1.287
o5
o0
v1
n-1.493
n2.0
o2
n-2.3
o5
o0
v0
n-0.793
n2.0
o2
o2
o2
n0.21055146
o5
v1
n2.02
o5
v0
n6.0
o44
o2
n-1.0
v0
o2
o2
o2
n0.1069411
o5
v1
n3.72
o0
o2
n-0.926
v0
n0.74543
o44
o0
o2
n-0.0895
o5
o0
v1
n-1.986
n2.0
o2
n-0.463
o5
o0
v0
n-0.805
n2.0
o2
o2
o2
n0.0073011076992
o5
v1
n2.0
o5
v0
n2.0
o44
o0
o2
n-4.032
o5
o0
v0
n-2.054
n2.0
o2
n-27.01
o5
o0
v1
n-1.002
n2.0
o2
o2
o2
n-0.040277634462
o5
v1
n3.0
o5
v0
n3.0
o44
o0
o2
n-2.356
o5
o0
v1
n-0.495
n2.0
o2
n-0.741
o5
o0
v0
n-1.312
n2.0
o2
o2
o2
n-0.39512601
v1
o0
o2
n-6.286
v0
n1.9675179999999999
o44
o0
o2
n-3.09
o5
o0
v1
n-1.542
n2.0
o2
n-3.143
o5
o0
v0
n-0.313
n2.0
o2
o2
o2
n-0.0990274586
v0
o5
v1
n3.72
o44
o0
o2
n-0.0895
o5
o0
v1
n-1.986
n2.0
o2
n-0.463
o5
o0
v0
n-0.805
n2.0
o2
o2
o2
n-0.0990274586
o5
v1
n3.72
o0
v0
n-0.805
o44
o0
o2
n-0.0895
o5
o0
v1
n-1.986
n2.0
o2
n-0.463
o5
o0
v0
n-0.805
n2.0
o2
o2
o2
n-6.599307
o5
v1
n1.606
o5
v0
n4.0
o44
o2
n-1.0
v0
o2
o2
o2
n-3.6531088
o5
v1
n4.177
o5
v0
n5.0
o44
o16
o5
v0
n2.0
o2
o2
o2
n-0.045258962
v0
o5
v1
n2.5
o44
o2
n-1.0
v0
o2
o2
o2
n-0.045258962
o5
v1
n2.5
v0
o44
o2
n-1.0
v0
o2
o2
o2
n-0.3688005328
o5
v1
n0.86
o5
v0
n6.0
o44
o2
n-1.0
v0
o2
o2
o2
n-1.4968436999999999
o5
v1
n3.25
v0
o44
o0
o2
n-1.108
o5
o0
v0
n-0.694
n2.0
o2
n-0.947
o5
o0
v1
n-0.756
n2.0
o2
o2
o2
n-1.6246421034999998
v0
o5
v1
n2.5
o44
o0
o2
n-1.075
o5
o0
v0
n-0.779
n2.0
o2
n-1.207
o5
o0
v1
n-1.194
n2.0
o2
o2
o2
n-1.6246421034999998
o5
v1
n2.5
o0
v0
n-0.779
o44
o0
o2
n-1.075
o5
o0
v0
n-0.779
n2.0
o2
n-1.207
o5
o0
v1
n-1.194
n2.0
o2
o2
o2
n-0.0065857238
o5
v1
n0.86
o5
v0
n8.0
o44
o2
n-1.0
v0
o2
o2
o2
n-2.09350848
o5
v1
n3.3
o5
v0
n2.0
o44
o2
n-1.0
v0
o2
o2
o2
n-1.1700261
v0
o5
v1
n1.274
o44
o2
n-1.0
v0
o2
o2
o2
n-0.62053692
o5
v1
n0.81
o5
v0
n4.0
o44
o16
o5
v0
n2.0
o2
o2
o2
n-2.52661752
o5
v1
n2.02
o5
v0
n5.0
o44
o2
n-1.0
v0
o2
o2
o2
n-5.4796632
o5
v1
n4.177
v0
o44
o16
o5
v0
n2.0
o2
o2
o2
n-0.2199769
o5
v1
n1.606
o5
v0
n6.0
o44
o2
n-1.0
v0
o2
o2
o2
n-3.69623488
o5
v1
n4.16
o5
v0
n3.0
o44
o16
o5
v0
n2.0
o2
o2
o2
o2
n1.2079507083599998
v0
o5
v1
n2.0
o0
v0
n-0.441
o44
o0
o2
n-4.542
o5
o0
v1
n-1.077
n2.0
o2
n-2.453
o5
o0
v0
n-0.441
n2.0
o2
o2
o2
o2
n0.081533673
o5
v1
n3.0
o5
v0
n2.0
o0
o2
n-1.482
v0
n1.9443840000000001
o44
o0
o2
n-2.356
o5
o0
v1
n-0.495
n2.0
o2
n-0.741
o5
o0
v0
n-1.312
n2.0
o2
o2
o2
o2
n0.24364658937599998
v0
o5
v1
n1.19
o0
v0
n-1.869
o44
o0
o2
n-0.581
o5
o0
v1
n-1.583
n2.0
o2
n-0.876
o5
o0
v0
n-1.869
n2.0
o2
o2
o2
o2
n0.8259733319999999
v1
v0
o0
v0
n-0.793
o44
o0
o2
n-1.287
o5
o0
v1
n-1.493
n2.0
o2
n-2.3
o5
o0
v0
n-0.793
n2.0
o2
o2
o2
o2
n1.6585028196
o5
v1
n3.25
o5
v0
n2.0
o0
v0
n-0.694
o44
o0
o2
n-1.108
o5
o0
v0
n-0.694
n2.0
o2
n-0.947
o5
o0
v1
n-0.756
n2.0
o2
o2
o2
o2
n0.0146022153984
v0
o5
v1
n2.0
o0
v0
n-2.054
o44
o0
o2
n-4.032
o5
o0
v0
n-2.054
n2.0
o2
n-27.01
o5
o0
v1
n-1.002
n2.0
o2
o2
o2
o2
n-0.120832903386
o5
v1
n3.0
o5
v0
n2.0
o0
v0
n-1.312
o44
o0
o2
n-2.356
o5
o0
v1
n-0.495
n2.0
o2
n-0.741
o5
o0
v0
n-1.312
n2.0
o2
o2
o2
o2
n-0.7484218499999999
o5
v1
n3.25
o5
v0
n2.0
o0
o2
n-2.216
v0
n1.537904
o44
o0
o2
n-1.108
o5
o0
v0
n-0.694
n2.0
o2
n-0.947
o5
o0
v1
n-0.756
n2.0
o2
o2
o2
o2
n-0.24621906
o5
v1
n2.0
v0
o0
o2
n-4.906
v0
n2.1635459999999997
o44
o0
o2
n-4.542
o5
o0
v1
n-1.077
n2.0
o2
n-2.453
o5
o0
v0
n-0.441
n2.0
o2
o2
o2
o2
n-0.139067688
o5
v1
n1.19
v0
o0
o2
n-1.752
v0
n3.274488
o44
o0
o2
n-0.581
o5
o0
v1
n-1.583
n2.0
o2
n-0.876
o5
o0
v0
n-1.869
n2.0
o2
o2
o2
o2
n-0.17955942
v1
v0
o0
o2
n-4.6
v0
n3.6477999999999997
o44
o0
o2
n-1.287
o5
o0
v1
n-1.493
n2.0
o2
n-2.3
o5
o0
v0
n-0.793
n2.0
o2
o2
o2
o2
n-0.0018107906
o5
v1
n2.0
v0
o0
o2
n-8.064
v0
n16.563456
o44
o0
o2
n-4.032
o5
o0
v0
n-2.054
n2.0
o2
n-27.01
o5
o0
v1
n-1.002
n2.0
o2
o2
o2
o2
o2
n0.5528342732
o5
v1
n3.25
o5
v0
n3.0
o0
v0
n-0.694
o0
o2
n-2.216
v0
n1.537904
o44
o0
o2
n-1.108
o5
o0
v0
n-0.694
n2.0
o2
n-0.947
o5
o0
v1
n-0.756
n2.0
o2
o2
o2
o2
o2
n0.6039753541799999
o5
v1
n2.0
o5
v0
n2.0
o0
v0
n-0.441
o0
o2
n-4.906
v0
n2.1635459999999997
o44
o0
o2
n-4.542
o5
o0
v1
n-1.077
n2.0
o2
n-2.453
o5
o0
v0
n-0.441
n2.0
o2
o2
o2
o2
o2
n0.12182329468799999
o5
v1
n1.19
o5
v0
n2.0
o0
v0
n-1.869
o0
o2
n-1.752
v0
n3.274488
o44
o0
o2
n-0.581
o5
o0
v1
n-1.583
n2.0
o2
n-0.876
o5
o0
v0
n-1.869
n2.0
o2
o2
o2
o2
o2
n2.48376209886
v1
v0
o0
v0
n-0.313
o0
o2
n-6.286
v0
n1.9675179999999999
o44
o0
o2
n-3.09
o5
o0
v1
n-1.542
n2.0
o2
n-3.143
o5
o0
v0
n-0.313
n2.0
o2
o2
o2
o2
o2
n0.41298666599999995
v1
o5
v0
n2.0
o0
v0
n-0.793
o0
o2
n-4.6
v0
n3.6477999999999997
o44
o0
o2
n-1.287
o5
o0
v1
n-1.493
n2.0
o2
n-2.3
o5
o0
v0
n-0.793
n2.0
o2
o2
o2
o2
o2
n0.0073011076992
o5
v1
n2.0
o5
v0
n2.0
o0
v0
n-2.054
o0
o2
n-8.064
v0
n16.563456
o44
o0
o2
n-4.032
o5
o0
v0
n-2.054
n2.0
o2
n-27.01
o5
o0
v1
n-1.002
n2.0
o2
o2
o2
o2
o2
n-0.040277634462
o5
v1
n3.0
o5
v0
n3.0
o0
v0
n-1.312
o0
o2
n-1.482
v0
n1.9443840000000001
o44
o0
o2
n-2.356
o5
o0
v1
n-0.495
n2.0
o2
n-0.741
o5
o0
v0
n-1.312
n2.0
o2
o2
o2
o2
o2
n-0.0990274586
v0
o5
v1
n3.72
o0
v0
n-0.805
o0
o2
n-0.926
v0
n0.74543
o44
o0
o2
n-0.0895
o5
o0
v1
n-1.986
n2.0
o2
n-0.463
o5
o0
v0
n-0.805
n2.0
o2
o2
o2
o2
o2
n-1.6246421034999998
v0
o5
v1
n2.5
o0
v0
n-0.779
o0
o2
n-2.15
v0
n1.67485
o44
o0
o2
n-1.075
o5
o0
v0
n-0.779
n2.0
o2
n-1.207
o5
o0
v1
n-1.194
n2.0
O8 0
o54
34
o2
n0.058200796
o5
v0
n4.0
o2
o2
n0.026224998149999998
o5
v0
n3.0
o5
v1
n-0.8049999999999999
o2
o2
n0.64991510612
o5
v0
n2.0
o5
v1
n0.17399999999999993
o2
o2
n0.9816687608
v0
o5
v1
n0.040000000000000036
o2
o2
n-0.39512601
v0
o44
o0
o2
n-3.09
o5
o0
v1
n-1.542
n2.0
o2
n-3.143
o5
o0
v0
n-0.313
n2.0
o2
o2
n-2.2016198976
v0
o5
v1
n1.7200000000000002
o2
o2
n-0.08977971
o5
v0
n2.0
o44
o0
o2
n-1.287
o5
o0
v1
n-1.493
n2.0
o2
n-2.3
o5
o0
v0
n-0.793
n2.0
o2
o2
n-1.8963543527999998
o5
v0
n2.0
o5
v1
n0.32899999999999996
o2
o2
o2
n0.4253139492
o5
v0
n6.0
o5
v1
n1.02
o44
o2
n-1.0
v0
o2
o2
o2
n0.081533673
o5
v0
n3.0
o5
v1
n2.0
o44
o0
o2
n-2.356
o5
o0
v1
n-0.495
n2.0
o2
n-0.741
o5
o0
v0
n-1.312
n2.0
o2
o2
o2
n0.39782089200000004
v0
o5
v1
n2.72
o44
o0
o2
n-0.0895
o5
o0
v1
n-1.986
n2.0
o2
n-0.463
o5
o0
v0
n-0.805
n2.0
o2
o2
o2
n0.0565737025
o5
v0
n2.0
o5
v1
n1.5
o44
o2
n-1.0
v0
o2
o2
o2
n1.8891187249999999
v0
o5
v1
n1.5
o44
o0
o2
n-1.075
o5
o0
v0
n-0.779
n2.0
o2
n-1.207
o5
o0
v1
n-1.194
n2.0
o2
o2
o2
n1.0369290654
v0
o5
v1
n1.4300000000000002
o44
o2
n-1.0
v0
o2
o2
o2
n1.151429664
o5
v0
n3.0
o5
v1
n2.3
o44
o2
n-1.0
v0
o2
o2
o2
n-3.8440842752
v0
o5
v1
n3.16
o44
o16
o5
v0
n2.0
o2
o2
o2
n-1.4906132514000001
v0
o5
v1
n0.274
o44
o2
n-1.0
v0
o2
o2
o2
n-3.8147588644
o5
v0
n3.0
o5
v1
n3.1769999999999996
o44
o16
o5
v0
n2.0
o2
o2
o2
n-0.12565872630000002
o5
v0
n2.0
o5
v1
n-0.18999999999999995
o44
o16
o5
v0
n2.0
o2
o2
o2
n-0.24621906
v1
o5
v0
n2.0
o44
o0
o2
n-4.542
o5
o0
v1
n-1.077
n2.0
o2
n-2.453
o5
o0
v0
n-0.441
n2.0
o2
o2
o2
n-0.08274527436
o5
v0
n2.0
o5
v1
n0.18999999999999995
o44
o0
o2
n-0.581
o5
o0
v1
n-1.583
n2.0
o2
n-0.876
o5
o0
v0
n-1.869
n2.0
o2
o2
o2
n-0.3532829014
o5
v0
n6.0
o5
v1
n0.6060000000000001
o44
o2
n-1.0
v0
o2
o2
o2
n-0.005663722468
o5
v0
n8.0
o5
v1
n-0.14
o44
o2
n-1.0
v0
o2
o2
o2
n-0.8107903375
o5
v0
n3.0
o5
v1
n2.25
o44
o0
o2
n-1.108
o5
o0
v0
n-0.694
n2.0
o2
n-0.947
o5
o0
v1
n-0.756
n2.0
o2
o2
o2
n-0.0018107906
v1
o5
v0
n2.0
o44
o0
o2
n-4.032
o5
o0
v0
n-2.054
n2.0
o2
n-27.01
o5
o0
v1
n-1.002
n2.0
o2
o2
o2
o2
n0.75564749
v0
o5
v1
n2.5
o0
o2
n-2.414
v1
n2.882316
o44
o0
o2
n-1.075
o5
o0
v0
n-0.779
n2.0
o2
n-1.207
o5
o0
v1
n-1.194
n2.0
o2
o2
o2
o2
n0.1069411
v0
o5
v1
n3.72
o0
o2
n-0.179
v1
n0.355494
o44
o0
o2
n-0.0895
o5
o0
v1
n-1.986
n2.0
o2
n-0.463
o5
o0
v0
n-0.805
n2.0
o2
o2
o2
o2
n0.027177891
o5
v0
n3.0
o5
v1
n3.0
o0
o2
n-4.712
v1
n2.33244
o44
o0
o2
n-2.356
o5
o0
v1
n-0.495
n2.0
o2
n-0.741
o5
o0
v0
n-1.312
n2.0
o2
o2
o2
o2
n-0.39512601
v0
v1
o0
o2
n-6.18
v1
n9.52956
o44
o0
o2
n-3.09
o5
o0
v1
n-1.542
n2.0
o2
n-3.143
o5
o0
v0
n-0.313
n2.0
o2
o2
o2
o2
n-0.12310953
o5
v0
n2.0
o5
v1
n2.0
o0
o2
n-9.084
v1
n9.783468
o44
o0
o2
n-4.542
o5
o0
v1
n-1.077
n2.0
o2
n-2.453
o5
o0
v0
n-0.441
n2.0
o2
o2
o2
o2
n-0.24947395
o5
v0
n3.0
o5
v1
n3.25
o0
o2
n-1.894
v1
n1.431864
o44
o0
o2
n-1.108
o5
o0
v0
n-0.694
n2.0
o2
n-0.947
o5
o0
v1
n-0.756
n2.0
o2
o2
o2
o2
n-0.069533844
o5
v0
n2.0
o5
v1
n1.19
o0
o2
n-1.162
v1
n1.839446
o44
o0
o2
n-0.581
o5
o0
v1
n-1.583
n2.0
o2
n-0.876
o5
o0
v0
n-1.869
n2.0
o2
o2
o2
o2
n-0.08977971
v1
o5
v0
n2.0
o0
o2
n-2.574
v1
n3.842982
o44
o0
o2
n-1.287
o5
o0
v1
n-1.493
n2.0
o2
n-2.3
o5
o0
v0
n-0.793
n2.0
o2
o2
o2
o2
n-0.0009053953
o5
v0
n2.0
o5
v1
n2.0
o0
o2
n-54.02
v1
n54.128040000000006
o44
o0
o2
n-4.032
o5
o0
v0
n-2.054
n2.0
o2
n-27.01
o5
o0
v1
n-1.002
n2.0
O9 0
o54
58
o2
o2
n0.039266750432000036
v0
o5
v1
n-0.96
o2
o2
n0.11308522846487996
o5
v0
n2.0
o5
v1
n-0.8260000000000001
o2
o2
n-0.6239005820711998
o5
v0
n2.0
o5
v1
n-0.671
o2
o2
n-0.24621906
o5
v0
n2.0
o44
o0
o2
n-4.542
o5
o0
v1
n-1.077
n2.0
o2
n-2.453
o5
o0
v0
n-0.441
n2.0
o2
o2
n-0.021111123510749997
o5
v0
n3.0
o5
v1
n-1.805
o2
o2
n-0.0018107906
o5
v0
n2.0
o44
o0
o2
n-4.032
o5
o0
v0
n-2.054
n2.0
o2
n-27.01
o5
o0
v1
n-1.002
n2.0
o2
o2
n-3.7867862238720007
v0
o5
v1
n0.7200000000000002
o2
o2
o2
n0.048909454106000005
o5
v0
n2.0
o5
v1
n2.0
o44
o0
o2
n-4.032
o5
o0
v0
n-2.054
n2.0
o2
n-27.01
o5
o0
v1
n-1.002
n2.0
o2
o2
o2
n0.08486055375000001
o5
v0
n2.0
o5
v1
n0.5
o44
o2
n-1.0
v0
o2
o2
o2
n2.4418787418
v0
v1
o44
o0
o2
n-3.09
o5
o0
v1
n-1.542
n2.0
o2
n-3.143
o5
o0
v0
n-0.313
n2.0
o2
o2
o2
n2.4418787418
v0
o0
v1
n-1.542
o44
o0
o2
n-3.09
o5
o0
v1
n-1.542
n2.0
o2
n-3.143
o5
o0
v0
n-0.313
n2.0
o2
o2
o2
n0.433820228184
o5
v0
n6.0
o5
v1
n0.020000000000000018
o44
o2
n-1.0
v0
o2
o2
o2
n1.0820728262400001
v0
o5
v1
n1.7200000000000002
o44
o0
o2
n-0.0895
o5
o0
v1
n-1.986
n2.0
o2
n-0.463
o5
o0
v0
n-0.805
n2.0
o2
o2
o2
n0.4725036613
o5
v0
n3.0
o5
v1
n3.25
o44
o0
o2
n-1.108
o5
o0
v0
n-0.694
n2.0
o2
n-0.947
o5
o0
v1
n-0.756
n2.0
o2
o2
o2
n0.080798326728
o5
v0
n2.0
o5
v1
n1.19
o44
o0
o2
n-0.581
o5
o0
v1
n-1.583
n2.0
o2
n-0.876
o5
o0
v0
n-1.869
n2.0
o2
o2
o2
n0.163067346
o5
v0
n3.0
v1
o44
o0
o2
n-2.356
o5
o0
v1
n-0.495
n2.0
o2
n-0.741
o5
o0
v0
n-1.312
n2.0
o2
o2
o2
n2.8336780875
v0
o5
v1
n0.5
o44
o0
o2
n-1.075
o5
o0
v0
n-0.779
n2.0
o2
n-1.207
o5
o0
v1
n-1.194
n2.0
o2
o2
o2
n0.023875157996999997
o5
v0
n2.0
o5
v1
n-1.19
o44
o16
o5
v0
n2.0
o2
o2
o2
n1.1183269705199999
o5
v0
n2.0
o5
v1
n2.0
o44
o0
o2
n-4.542
o5
o0
v1
n-1.077
n2.0
o2
n-2.453
o5
o0
v0
n-0.441
n2.0
o2
o2
o2
n2.6482882271999997
o5
v0
n3.0
o5
v1
n1.2999999999999998
o44
o2
n-1.0
v0
o2
o2
o2
n1.4828085635220003
v0
o5
v1
n0.43000000000000016
o44
o2
n-1.0
v0
o2
o2
o2
n0.0007929211455200001
o5
v0
n8.0
o5
v1
n-1.1400000000000001
o44
o2
n-1.0
v0
o2
o2
o2
n0.23109297354
v1
o5
v0
n2.0
o44
o0
o2
n-1.287
o5
o0
v1
n-1.493
n2.0
o2
n-2.3
o5
o0
v0
n-0.793
n2.0
o2
o2
o2
n0.23109297354
o5
v0
n2.0
o0
v1
n-1.493
o44
o0
o2
n-1.287
o5
o0
v1
n-1.493
n2.0
o2
n-2.3
o5
o0
v0
n-0.793
n2.0
o2
o2
o2
n-12.147306309632
v0
o5
v1
n2.16
o44
o16
o5
v0
n2.0
o2
o2
o2
n-0.39512601
v0
o0
o2
n-6.18
v1
n9.52956
o44
o0
o2
n-3.09
o5
o0
v1
n-1.542
n2.0
o2
n-3.143
o5
o0
v0
n-0.313
n2.0
o2
o2
o2
n-0.015721602128399993
o5
v0
n2.0
o5
v1
n-0.81
o44
o0
o2
n-0.581
o5
o0
v1
n-1.583
n2.0
o2
n-0.876
o5
o0
v0
n-1.869
n2.0
o2
o2
o2
n-0.128062222392
o5
v0
n3.0
o5
v1
n3.0
o44
o0
o2
n-2.356
o5
o0
v1
n-0.495
n2.0
o2
n-0.741
o5
o0
v0
n-1.312
n2.0
o2
o2
o2
n-0.0191424569
v0
o5
v1
n3.72
o44
o0
o2
n-0.0895
o5
o0
v1
n-1.986
n2.0
o2
n-0.463
o5
o0
v0
n-0.805
n2.0
o2
o2
o2
n-0.21408943824840004
o5
v0
n6.0
o5
v1
n-0.3939999999999999
o44
o2
n-1.0
v0
o2
o2
o2
n-1.82413304086
v0
o5
v1
n2.5
o44
o0
o2
n-1.075
o5
o0
v0
n-0.779
n2.0
o2
n-1.207
o5
o0
v1
n-1.194
n2.0
o2
o2
o2
n-0.08977971
o5
v0
n2.0
o0
o2
n-2.574
v1
n3.842982
o44
o0
o2
n-1.287
o5
o0
v1
n-1.493
n2.0
o2
n-2.3
o5
o0
v0
n-0.793
n2.0
o2
o2
o2
n-12.119488912198799
o5
v0
n3.0
o5
v1
n2.1769999999999996
o44
o16
o5
v0
n2.0
o2
o2
o2
n-0.4084280308836001
v0
o5
v1
n-0.726
o44
o2
n-1.0
v0
o2
o2
o2
n-1.824278259375
o5
v0
n3.0
o5
v1
n1.25
o44
o0
o2
n-1.108
o5
o0
v0
n-0.694
n2.0
o2
n-0.947
o5
o0
v1
n-0.756
n2.0
o2
o2
o2
o2
n0.09781890821200001
v1
o5
v0
n2.0
o0
v1
n-1.002
o44
o0
o2
n-4.032
o5
o0
v0
n-2.054
n2.0
o2
n-27.01
o5
o0
v1
n-1.002
n2.0
o2
o2
o2
o2
n0.081533673
o5
v0
n3.0
o5
v1
n2.0
o0
o2
n-4.712
v1
n2.33244
o44
o0
o2
n-2.356
o5
o0
v1
n-0.495
n2.0
o2
n-0.741
o5
o0
v0
n-1.312
n2.0
o2
o2
o2
o2
n0.09615000880631999
o5
v0
n2.0
o5
v1
n0.18999999999999995
o0
v1
n-1.583
o44
o0
o2
n-0.581
o5
o0
v1
n-1.583
n2.0
o2
n-0.876
o5
o0
v0
n-1.869
n2.0
o2
o2
o2
o2
n0.39782089200000004
v0
o5
v1
n2.72
o0
o2
n-0.179
v1
n0.355494
o44
o0
o2
n-0.0895
o5
o0
v1
n-1.986
n2.0
o2
n-0.463
o5
o0
v0
n-0.805
n2.0
o2
o2
o2
o2
n1.8891187249999999
v0
o5
v1
n1.5
o0
o2
n-2.414
v1
n2.882316
o44
o0
o2
n-1.075
o5
o0
v0
n-0.779
n2.0
o2
n-1.207
o5
o0
v1
n-1.194
n2.0
o2
o2
o2
o2
n2.2366539410399997
v1
o5
v0
n2.0
o0
v1
n-1.077
o44
o0
o2
n-4.542
o5
o0
v1
n-1.077
n2.0
o2
n-2.453
o5
o0
v0
n-0.441
n2.0
o2
o2
o2
o2
n1.5356368992249998
o5
v0
n3.0
o5
v1
n2.25
o0
v1
n-0.756
o44
o0
o2
n-1.108
o5
o0
v0
n-0.694
n2.0
o2
n-0.947
o5
o0
v1
n-0.756
n2.0
o2
o2
o2
o2
n-4.56033260215
v0
o5
v1
n1.5
o0
v1
n-1.194
o44
o0
o2
n-1.075
o5
o0
v0
n-0.779
n2.0
o2
n-1.207
o5
o0
v1
n-1.194
n2.0
o2
o2
o2
o2
n-0.24621906
o5
v0
n2.0
v1
o0
o2
n-9.084
v1
n9.783468
o44
o0
o2
n-4.542
o5
o0
v1
n-1.077
n2.0
o2
n-2.453
o5
o0
v0
n-0.441
n2.0
o2
o2
o2
o2
n-0.071209939668
v0
o5
v1
n2.72
o0
v1
n-1.986
o44
o0
o2
n-0.0895
o5
o0
v1
n-1.986
n2.0
o2
n-0.463
o5
o0
v0
n-0.805
n2.0
o2
o2
o2
o2
n-0.08274527436
o5
v0
n2.0
o5
v1
n0.18999999999999995
o0
o2
n-1.162
v1
n1.839446
o44
o0
o2
n-0.581
o5
o0
v1
n-1.583
n2.0
o2
n-0.876
o5
o0
v0
n-1.869
n2.0
o2
o2
o2
o2
n-0.384186667176
o5
v0
n3.0
o5
v1
n2.0
o0
v1
n-0.495
o44
o0
o2
n-2.356
o5
o0
v1
n-0.495
n2.0
o2
n-0.741
o5
o0
v0
n-1.312
n2.0
o2
o2
o2
o2
n-0.8107903375
o5
v0
n3.0
o5
v1
n2.25
o0
o2
n-1.894
v1
n1.431864
o44
o0
o2
n-1.108
o5
o0
v0
n-0.694
n2.0
o2
n-0.947
o5
o0
v1
n-0.756
n2.0
o2
o2
o2
o2
n-0.0018107906
o5
v0
n2.0
v1
o0
o2
n-54.02
v1
n54.128040000000006
o44
o0
o2
n-4.032
o5
o0
v0
n-2.054
n2.0
o2
n-27.01
o5
o0
v1
n-1.002
n2.0
o2
o2
o2
o2
o2
n0.048909454106000005
o5
v0
n2.0
o5
v1
n2.0
o0
v1
n-1.002
o0
o2
n-54.02
v1
n54.128040000000006
o44
o0
o2
n-4.032
o5
o0
v0
n-2.054
n2.0
o2
n-27.01
o5
o0
v1
n-1.002
n2.0
o2
o2
o2
o2
o2
n2.4418787418
v0
v1
o0
v1
n-1.542
o0
o2
n-6.18
v1
n9.52956
o44
o0
o2
n-3.09
o5
o0
v1
n-1.542
n2.0
o2
n-3.143
o5
o0
v0
n-0.313
n2.0
o2
o2
o2
o2
o2
n0.4725036613
o5
v0
n3.0
o5
v1
n3.25
o0
v1
n-0.756
o0
o2
n-1.894
v1
n1.431864
o44
o0
o2
n-1.108
o5
o0
v0
n-0.694
n2.0
o2
n-0.947
o5
o0
v1
n-0.756
n2.0
o2
o2
o2
o2
o2
n0.080798326728
o5
v0
n2.0
o5
v1
n1.19
o0
v1
n-1.583
o0
o2
n-1.162
v1
n1.839446
o44
o0
o2
n-0.581
o5
o0
v1
n-1.583
n2.0
o2
n-0.876
o5
o0
v0
n-1.869
n2.0
o2
o2
o2
o2
o2
n1.1183269705199999
o5
v0
n2.0
o5
v1
n2.0
o0
v1
n-1.077
o0
o2
n-9.084
v1
n9.783468
o44
o0
o2
n-4.542
o5
o0
v1
n-1.077
n2.0
o2
n-2.453
o5
o0
v0
n-0.441
n2.0
o2
o2
o2
o2
o2
n0.23109297354
v1
o5
v0
n2.0
o0
v1
n-1.493
o0
o2
n-2.574
v1
n3.842982
o44
o0
o2
n-1.287
o5
o0
v1
n-1.493
n2.0
o2
n-2.3
o5
o0
v0
n-0.793
n2.0
o2
o2
o2
o2
o2
n-0.128062222392
o5
v0
n3.0
o5
v1
n3.0
o0
v1
n-0.495
o0
o2
n-4.712
v1
n2.33244
o44
o0
o2
n-2.356
o5
o0
v1
n-0.495
n2.0
o2
n-0.741
o5
o0
v0
n-1.312
n2.0
o2
o2
o2
o2
o2
n-0.0191424569
v0
o5
v1
n3.72
o0
v1
n-1.986
o0
o2
n-0.179
v1
n0.355494
o44
o0
o2
n-0.0895
o5
o0
v1
n-1.986
n2.0
o2
n-0.463
o5
o0
v0
n-0.805
n2.0
o2
o2
o2
o2
o2
n-1.82413304086
v0
o5
v1
n2.5
o0
v1
n-1.194
o0
o2
n-2.414
v1
n2.882316
o44
o0
o2
n-1.075
o5
o0
v0
n-0.779
n2.0
o2
n-1.207
o5
o0
v1
n-1.194
n2.0
O10 0
o54
62
o2
n0.232803184
o5
v0
n3.0
o2
n0.9816687608
o5
v1
n0.040000000000000036
o2
n-0.39512601
o44
o0
o2
n-3.09
o5
o0
v1
n-1.542
n2.0
o2
n-3.143
o5
o0
v0
n-0.313
n2.0
o2
n-2.2016198976
o5
v1
n1.7200000000000002
o2
o2
n0.39782089200000004
o5
v1
n2.72
o44
o0
o2
n-0.0895
o5
o0
v1
n-1.986
n2.0
o2
n-0.463
o5
o0
v0
n-0.805
n2.0
o2
o2
n1.8891187249999999
o5
v1
n1.5
o44
o0
o2
n-1.075
o5
o0
v0
n-0.779
n2.0
o2
n-1.207
o5
o0
v1
n-1.194
n2.0
o2
o2
n1.0369290654
o5
v1
n1.4300000000000002
o44
o2
n-1.0
v0
o2
o2
n0.07867499445
o5
v1
n-0.8049999999999999
o5
v0
n2.0
o2
o2
n1.29983021224
v0
o5
v1
n0.17399999999999993
o2
o2
n-3.8440842752
o5
v1
n3.16
o44
o16
o5
v0
n2.0
o2
o2
n-1.4906132514000001
o5
v1
n0.274
o44
o2
n-1.0
v0
o2
o2
n-0.17955942
v0
o44
o0
o2
n-1.287
o5
o0
v1
n-1.493
n2.0
o2
n-2.3
o5
o0
v0
n-0.793
n2.0
o2
o2
n-3.7927087055999995
v0
o5
v1
n0.32899999999999996
o2
o2
o2
n2.4418787418
v1
o0
v1
n-1.542
o44
o0
o2
n-3.09
o5
o0
v1
n-1.542
n2.0
o2
n-3.143
o5
o0
v0
n-0.313
n2.0
o2
o2
o2
n7.6881685504
o5
v1
n3.16
o5
v0
n2.0
o44
o16
o5
v0
n2.0
o2
o2
o2
n1.4906132514000001
v0
o5
v1
n0.274
o44
o2
n-1.0
v0
o2
o2
o2
n7.6295177288
o5
v1
n3.1769999999999996
o5
v0
n4.0
o44
o16
o5
v0
n2.0
o2
o2
o2
n0.25131745260000005
o5
v1
n-0.18999999999999995
o5
v0
n3.0
o44
o16
o5
v0
n2.0
o2
o2
o2
n2.5518836952
o5
v1
n1.02
o5
v0
n5.0
o44
o2
n-1.0
v0
o2
o2
o2
n0.113147405
v0
o5
v1
n1.5
o44
o2
n-1.0
v0
o2
o2
o2
n0.3532829014
o5
v1
n0.6060000000000001
o5
v0
n6.0
o44
o2
n-1.0
v0
o2
o2
o2
n0.005663722468
o5
v1
n-0.14
o5
v0
n8.0
o44
o2
n-1.0
v0
o2
o2
o2
n3.454288992
o5
v1
n2.3
o5
v0
n2.0
o44
o2
n-1.0
v0
o2
o2
o2
n0.244601019
o5
v1
n2.0
o5
v0
n2.0
o44
o0
o2
n-2.356
o5
o0
v1
n-0.495
n2.0
o2
n-0.741
o5
o0
v0
n-1.312
n2.0
o2
o2
o2
n-0.4253139492
o5
v1
n1.02
o5
v0
n6.0
o44
o2
n-1.0
v0
o2
o2
o2
n-0.39512601
v0
o0
o2
n-6.286
v0
n1.9675179999999999
o44
o0
o2
n-3.09
o5
o0
v1
n-1.542
n2.0
o2
n-3.143
o5
o0
v0
n-0.313
n2.0
o2
o2
o2
n-0.25131745260000005
v0
o5
v1
n-0.18999999999999995
o44
o16
o5
v0
n2.0
o2
o2
o2
n-2.4323710125
o5
v1
n2.25
o5
v0
n2.0
o44
o0
o2
n-1.108
o5
o0
v0
n-0.694
n2.0
o2
n-0.947
o5
o0
v1
n-0.756
n2.0
o2
o2
o2
n-0.0191424569
o5
v1
n3.72
o0
v1
n-1.986
o44
o0
o2
n-0.0895
o5
o0
v1
n-1.986
n2.0
o2
n-0.463
o5
o0
v0
n-0.805
n2.0
o2
o2
o2
n-0.0565737025
o5
v1
n1.5
o5
v0
n2.0
o44
o2
n-1.0
v0
o2
o2
o2
n-1.82413304086
o5
v1
n2.5
o0
v1
n-1.194
o44
o0
o2
n-1.075
o5
o0
v0
n-0.779
n2.0
o2
n-1.207
o5
o0
v1
n-1.194
n2.0
o2
o2
o2
n-0.49243812
v0
v1
o44
o0
o2
n-4.542
o5
o0
v1
n-1.077
n2.0
o2
n-2.453
o5
o0
v0
n-0.441
n2.0
o2
o2
o2
n-1.0369290654
v0
o5
v1
n1.4300000000000002
o44
o2
n-1.0
v0
o2
o2
o2
n-2.1196974084
o5
v1
n0.6060000000000001
o5
v0
n5.0
o44
o2
n-1.0
v0
o2
o2
o2
n-1.151429664
o5
v1
n2.3
o5
v0
n3.0
o44
o2
n-1.0
v0
o2
o2
o2
n-0.16549054872
v0
o5
v1
n0.18999999999999995
o44
o0
o2
n-0.581
o5
o0
v1
n-1.583
n2.0
o2
n-0.876
o5
o0
v0
n-1.869
n2.0
o2
o2
o2
n-11.4442765932
o5
v1
n3.1769999999999996
o5
v0
n2.0
o44
o16
o5
v0
n2.0
o2
o2
o2
n-0.08977971
o5
v0
n2.0
o0
o2
n-4.6
v0
n3.6477999999999997
o44
o0
o2
n-1.287
o5
o0
v1
n-1.493
n2.0
o2
n-2.3
o5
o0
v0
n-0.793
n2.0
o2
o2
o2
n-0.045309779744
o5
v1
n-0.14
o5
v0
n7.0
o44
o2
n-1.0
v0
o2
o2
o2
n-0.0036215812
v0
v1
o44
o0
o2
n-4.032
o5
o0
v0
n-2.054
n2.0
o2
n-27.01
o5
o0
v1
n-1.002
n2.0
o2
o2
o2
o2
n0.09781890821200001
v0
o5
v1
n2.0
o0
v1
n-1.002
o44
o0
o2
n-4.032
o5
o0
v0
n-2.054
n2.0
o2
n-27.01
o5
o0
v1
n-1.002
n2.0
o2
o2
o2
o2
n1.4175109838999997
o5
v1
n3.25
o5
v0
n2.0
o0
v1
n-0.756
o44
o0
o2
n-1.108
o5
o0
v0
n-0.694
n2.0
o2
n-0.947
o5
o0
v1
n-0.756
n2.0
o2
o2
o2
o2
n0.161596653456
v0
o5
v1
n1.19
o0
v1
n-1.583
o44
o0
o2
n-0.581
o5
o0
v1
n-1.583
n2.0
o2
n-0.876
o5
o0
v0
n-1.869
n2.0
o2
o2
o2
o2
n0.081533673
o5
v1
n2.0
o5
v0
n3.0
o0
o2
n-1.482
v0
n1.9443840000000001
o44
o0
o2
n-2.356
o5
o0
v1
n-0.495
n2.0
o2
n-0.741
o5
o0
v0
n-1.312
n2.0
o2
o2
o2
o2
n0.39782089200000004
v0
o5
v1
n2.72
o0
o2
n-0.926
v0
n0.74543
o44
o0
o2
n-0.0895
o5
o0
v1
n-1.986
n2.0
o2
n-0.463
o5
o0
v0
n-0.805
n2.0
o2
o2
o2
o2
n1.8891187249999999
v0
o5
v1
n1.5
o0
o2
n-2.15
v0
n1.67485
o44
o0
o2
n-1.075
o5
o0
v0
n-0.779
n2.0
o2
n-1.207
o5
o0
v1
n-1.194
n2.0
o2
o2
o2
o2
n2.2366539410399997
v0
o5
v1
n2.0
o0
v1
n-1.077
o44
o0
o2
n-4.542
o5
o0
v1
n-1.077
n2.0
o2
n-2.453
o5
o0
v0
n-0.441
n2.0
o2
o2
o2
o2
n0.46218594708
v1
v0
o0
v1
n-1.493
o44
o0
o2
n-1.287
o5
o0
v1
n-1.493
n2.0
o2
n-2.3
o5
o0
v0
n-0.793
n2.0
o2
o2
o2
o2
n-0.24621906
v1
o5
v0
n2.0
o0
o2
n-4.906
v0
n2.1635459999999997
o44
o0
o2
n-4.542
o5
o0
v1
n-1.077
n2.0
o2
n-2.453
o5
o0
v0
n-0.441
n2.0
o2
o2
o2
o2
n-0.08274527436
o5
v1
n0.18999999999999995
o5
v0
n2.0
o0
o2
n-1.752
v0
n3.274488
o44
o0
o2
n-0.581
o5
o0
v1
n-1.583
n2.0
o2
n-0.876
o5
o0
v0
n-1.869
n2.0
o2
o2
o2
o2
n-0.384186667176
o5
v1
n3.0
o5
v0
n2.0
o0
v1
n-0.495
o44
o0
o2
n-2.356
o5
o0
v1
n-0.495
n2.0
o2
n-0.741
o5
o0
v0
n-1.312
n2.0
o2
o2
o2
o2
n-0.8107903375
o5
v1
n2.25
o5
v0
n3.0
o0
o2
n-2.216
v0
n1.537904
o44
o0
o2
n-1.108
o5
o0
v0
n-0.694
n2.0
o2
n-0.947
o5
o0
v1
n-0.756
n2.0
o2
o2
o2
o2
n-0.0018107906
v1
o5
v0
n2.0
o0
o2
n-8.064
v0
n16.563456
o44
o0
o2
n-4.032
o5
o0
v0
n-2.054
n2.0
o2
n-27.01
o5
o0
v1
n-1.002
n2.0
o2
o2
o2
o2
o2
n0.048909454106000005
o5
v1
n2.0
o5
v0
n2.0
o0
v1
n-1.002
o0
o2
n-8.064
v0
n16.563456
o44
o0
o2
n-4.032
o5
o0
v0
n-2.054
n2.0
o2
n-27.01
o5
o0
v1
n-1.002
n2.0
o2
o2
o2
o2
o2
n2.4418787418
v1
v0
o0
v1
n-1.542
o0
o2
n-6.286
v0
n1.9675179999999999
o44
o0
o2
n-3.09
o5
o0
v1
n-1.542
n2.0
o2
n-3.143
o5
o0
v0
n-0.313
n2.0
o2
o2
o2
o2
o2
n0.4725036613
o5
v1
n3.25
o5
v0
n3.0
o0
v1
n-0.756
o0
o2
n-2.216
v0
n1.537904
o44
o0
o2
n-1.108
o5
o0
v0
n-0.694
n2.0
o2
n-0.947
o5
o0
v1
n-0.756
n2.0
o2
o2
o2
o2
o2
n0.080798326728
o5
v1
n1.19
o5
v0
n2.0
o0
v1
n-1.583
o0
o2
n-1.752
v0
n3.274488
o44
o0
o2
n-0.581
o5
o0
v1
n-1.583
n2.0
o2
n-0.876
o5
o0
v0
n-1.869
n2.0
o2
o2
o2
o2
o2
n1.1183269705199999
o5
v1
n2.0
o5
v0
n2.0
o0
v1
n-1.077
o0
o2
n-4.906
v0
n2.1635459999999997
o44
o0
o2
n-4.542
o5
o0
v1
n-1.077
n2.0
o2
n-2.453
o5
o0
v0
n-0.441
n2.0
o2
o2
o2
o2
o2
n0.23109297354
v1
o5
v0
n2.0
o0
v1
n-1.493
o0
o2
n-4.6
v0
n3.6477999999999997
o44
o0
o2
n-1.287
o5
o0
v1
n-1.493
n2.0
o2
n-2.3
o5
o0
v0
n-0.793
n2.0
o2
o2
o2
o2
o2
n-0.128062222392
o5
v1
n3.0
o5
v0
n3.0
o0
v1
n-0.495
o0
o2
n-1.482
v0
n1.9443840000000001
o44
o0
o2
n-2.356
o5
o0
v1
n-0.495
n2.0
o2
n-0.741
o5
o0
v0
n-1.312
n2.0
o2
o2
o2
o2
o2
n-0.0191424569
v0
o5
v1
n3.72
o0
v1
n-1.986
o0
o2
n-0.926
v0
n0.74543
o44
o0
o2
n-0.0895
o5
o0
v1
n-1.986
n2.0
o2
n-0.463
o5
o0
v0
n-0.805
n2.0
o2
o2
o2
o2
o2
n-1.82413304086
v0
o5
v1
n2.5
o0
v1
n-1.194
o0
o2
n-2.15
v0
n1.67485
o44
o0
o2
n-1.075
o5
o0
v0
n-0.779
n2.0
o2
n-1.207
o5
o0
v1
n-1.194
n2.0
O11 0
o0
o54
6
o2
n7.824518623386008
o5
o0
o16
o3
n1
v1
n1
n0.596
o2
n-338.93732001583646
o5
o0
o16
o3
n1
v1
n1
n1.495
o2
n368.3422016038343
o5
o0
o16
o3
n1
v1
n1
n1.561
o2
n-90.14206962630433
o5
o0
o16
o3
n1
v1
n1
n2.737
o2
n80.35347134933373
o5
o0
o16
o3
n1
v1
n1
n3.606
o2
n-26.00710239571597
o5
o0
o16
o3
n1
v1
n1
n4.943
n1.0
O12 0
o44
o2
v1
o54
6
o2
n-4.698337259111072
o5
o0
o16
o3
n1
v1
n1
n0.443
o2
n-10.953380258011986
o5
o0
o16
o3
n1
v1
n1
n2.304
o2
n12.92351305172882
o5
o0
o16
o3
n1
v1
n1
n4.146
o2
n-1017.0017776259273
o5
o0
o16
o3
n1
v1
n1
n11.027
o2
n1604.552160868234
o5
o0
o16
o3
n1
v1
n1
n12.113
o2
n-1439.9265562459323
o5
o0
o16
o3
n1
v1
n1
n17.485
O13 0
n0.0
x2
0 1.00000001
1 1.0
r
b
3
3
k1
0
G0 2
0 0
1 5.070807811278541
G1 1
0 0
G2 1
0 0
G3 1
1 0
G4 1
1 0
G5 2
0 0
1 0
G6 2
0 0
1 0
G7 2
0 0
1 0
G8 2
0 0
1 0
G9 2
0 0
1 0
G10 2
0 0
1 0
G11 1
1 0
G12 1
1 0
